(set-info :smt-lib-version 2.6)
(set-logic QF_UFLRA)
(set-info :source |
MathSat group

|)
(set-info :category "random")
(set-info :status sat)
(declare-fun x0 () Real)
(declare-fun x1 () Real)
(declare-fun x2 () Real)
(declare-fun x3 () Real)
(declare-fun x4 () Real)
(declare-fun x5 () Real)
(declare-fun x6 () Real)
(declare-fun x7 () Real)
(declare-fun x8 () Real)
(declare-fun x9 () Real)
(declare-fun x10 () Real)
(declare-fun x11 () Real)
(declare-fun x12 () Real)
(declare-fun x13 () Real)
(declare-fun x14 () Real)
(declare-fun x15 () Real)
(declare-fun x16 () Real)
(declare-fun x17 () Real)
(declare-fun x18 () Real)
(declare-fun x19 () Real)
(declare-fun x20 () Real)
(declare-fun x21 () Real)
(declare-fun x22 () Real)
(declare-fun x23 () Real)
(declare-fun x24 () Real)
(declare-fun x25 () Real)
(declare-fun x26 () Real)
(declare-fun x27 () Real)
(declare-fun x28 () Real)
(declare-fun x29 () Real)
(declare-fun x30 () Real)
(declare-fun x31 () Real)
(declare-fun x32 () Real)
(declare-fun x33 () Real)
(declare-fun x34 () Real)
(declare-fun x35 () Real)
(declare-fun x36 () Real)
(declare-fun x37 () Real)
(declare-fun x38 () Real)
(declare-fun x39 () Real)
(declare-fun f0_1 (Real) Real)
(declare-fun f0_2 (Real Real) Real)
(declare-fun f0_3 (Real Real Real) Real)
(declare-fun f0_4 (Real Real Real Real) Real)
(declare-fun P0 () Bool)
(declare-fun P1 () Bool)
(declare-fun P2 () Bool)
(declare-fun P3 () Bool)
(declare-fun P4 () Bool)
(declare-fun P5 () Bool)
(declare-fun P6 () Bool)
(declare-fun P7 () Bool)
(declare-fun P8 () Bool)
(declare-fun P9 () Bool)
(declare-fun P10 () Bool)
(declare-fun P11 () Bool)
(declare-fun P12 () Bool)
(declare-fun P13 () Bool)
(declare-fun P14 () Bool)
(declare-fun P15 () Bool)
(declare-fun P16 () Bool)
(declare-fun P17 () Bool)
(declare-fun P18 () Bool)
(declare-fun P19 () Bool)
(declare-fun P20 () Bool)
(declare-fun P21 () Bool)
(declare-fun P22 () Bool)
(declare-fun P23 () Bool)
(declare-fun P24 () Bool)
(declare-fun P25 () Bool)
(declare-fun P26 () Bool)
(declare-fun P27 () Bool)
(declare-fun P28 () Bool)
(declare-fun P29 () Bool)
(declare-fun P30 () Bool)
(declare-fun P31 () Bool)
(declare-fun P32 () Bool)
(declare-fun P33 () Bool)
(declare-fun P34 () Bool)
(declare-fun P35 () Bool)
(declare-fun P36 () Bool)
(declare-fun P37 () Bool)
(declare-fun P38 () Bool)
(declare-fun P39 () Bool)
(assert (let ((?v_90 (< (+ (- (* 18 x10) (* 44 x1)) (* 5 x9)) 2)) (?v_87 (= (- (- (* 55 x1) (* 6 x36)) (* 56 x15)) 27)) (?v_103 (<= (- (- (* 13 x11) (* 55 x26)) (* 22 x28)) 4)) (?v_176 (distinct (+ (- (* 13 x4) (* 50 x22)) (* 28 x29)) 47)) (?v_107 (= (+ (- (* 3 x39) (* 29 x27)) (* 18 x20)) 11)) (?v_79 (distinct (+ (- (* 21 x3) (* 56 x3)) (* 10 x14)) 10)) (?v_153 (distinct (- (+ (* 27 x39) (* 55 x16)) (* 24 x24)) 29)) (?v_121 (<= (- (- (* 33 x21) (* 18 x13)) (* 55 x23)) 8)) (?v_146 (<= (+ (- (* 13 x17) (* 10 x38)) (* 32 x5)) 25)) (?v_13 (f0_1 x22))) (let ((?v_57 (distinct ?v_13 x10)) (?v_74 (distinct x15 (f0_2 x4 x28))) (?v_159 (= x25 (f0_1 x30))) (?v_19 (distinct x14 (f0_2 x13 x19))) (?v_55 (distinct (f0_2 x19 x0) x34)) (?v_132 (= (f0_1 x25) x34)) (?v_28 (f0_1 x35))) (let ((?v_169 (= ?v_28 (f0_2 x10 x1))) (?v_75 (distinct ?v_28 x36)) (?v_148 (= x35 (f0_1 x23))) (?v_109 (distinct (f0_1 x33) (f0_2 x10 x33))) (?v_137 (distinct x28 (f0_1 x17))) (?v_163 (distinct x8 (f0_2 x21 x11))) (?v_16 (distinct x19 (f0_2 x26 x36))) (?v_20 (f0_1 x0))) (let ((?v_97 (= ?v_20 x11)) (?v_5 (distinct (f0_2 x6 x4) (f0_2 x35 x27))) (?v_125 (= (f0_1 x20) x22)) (?v_129 (distinct (f0_2 x1 x12) x22)) (?v_94 (= (f0_2 x34 x36) ?v_13)) (?v_50 (distinct x33 (f0_2 x7 x39))) (?v_59 (distinct x6 x3)) (?v_82 (= x19 x19)) (?v_39 (f0_1 x39))) (let ((?v_168 (distinct ?v_39 x37)) (?v_152 (distinct x38 (f0_2 x24 x34))) (?v_37 (distinct x8 x3)) (?v_155 (distinct (f0_2 x12 x30) ?v_39)) (?v_53 (= (f0_2 x29 x26) (f0_2 x21 x10))) (?v_46 (= (f0_1 x37) x11)) (?v_93 (= (f0_1 x13) ?v_28)) (?v_48 (= x11 ?v_20)) (?v_0 (f0_1 x4))) (let ((?v_183 (= ?v_0 (f0_2 x33 x16))) (?v_118 (= (f0_1 x10) x15)) (?v_62 (distinct ?v_0 (f0_2 x24 x32))) (?v_22 (= x14 (f0_2 x34 x25))) (?v_9 (= x9 (f0_2 x2 x34))) (?v_8 (= x15 (f0_2 x11 x36))) (?v_41 (= x7 (f0_2 x28 x36))) (?v_14 (= (f0_2 x15 x34) (f0_2 x3 x10))) (?v_67 (distinct x24 (f0_2 x25 x19))) (?v_151 (= x0 ?v_20)) (?v_11 (= x19 x14)) (?v_144 (not ?v_16)) (?v_15 (not P27))) (let ((?v_27 (not ?v_22)) (?v_40 (not ?v_62)) (?v_36 (not P9)) (?v_149 (not ?v_8)) (?v_17 (not P13)) (?v_26 (not ?v_107)) (?v_4 (not ?v_37)) (?v_83 (not ?v_168)) (?v_113 (not P34)) (?v_78 (not ?v_74)) (?v_44 (not ?v_87)) (?v_43 (not ?v_14)) (?v_2 (not P2)) (?v_71 (not ?v_183)) (?v_72 (not P1)) (?v_12 (not ?v_11)) (?v_25 (not ?v_176)) (?v_156 (not P15)) (?v_60 (not ?v_75)) (?v_76 (not P5)) (?v_141 (not ?v_59)) (?v_7 (not ?v_48)) (?v_54 (not ?v_94)) (?v_89 (not P19)) (?v_158 (not P23)) (?v_42 (not ?v_57)) (?v_56 (not P33)) (?v_70 (not ?v_67)) (?v_85 (not ?v_19)) (?v_92 (not ?v_151))) (let ((?v_32 (or ?v_12 ?v_92)) (?v_30 (not P10)) (?v_45 (not P37)) (?v_206 (not P16)) (?v_58 (not P29)) (?v_184 (not ?v_132)) (?v_68 (not ?v_146)) (?v_91 (not ?v_41)) (?v_112 (not P20)) (?v_108 (not ?v_121)) (?v_64 (not ?v_53)) (?v_105 (not P38)) (?v_63 (not P22)) (?v_98 (not P3)) (?v_102 (not P8)) (?v_170 (not ?v_148)) (?v_135 (not P32)) (?v_119 (not P24)) (?v_165 (not ?v_9)) (?v_100 (not P36)) (?v_175 (not P39)) (?v_201 (not ?v_55)) (?v_88 (not P6)) (?v_96 (not ?v_82)) (?v_179 (not ?v_103)) (?v_192 (not ?v_90)) (?v_187 (not ?v_93)) (?v_196 (not ?v_97)) (?v_117 (not P12)) (?v_131 (not ?v_137)) (?v_115 (not ?v_46)) (?v_160 (not P28)) (?v_126 (not ?v_159)) (?v_143 (not P31)) (?v_124 (not ?v_5)) (?v_136 (not ?v_163)) (?v_122 (not ?v_50)) (?v_157 (not ?v_125)) (?v_182 (not P17)) (?v_150 (not P7)) (?v_164 (not ?v_129)) (?v_147 (not P35)) (?v_154 (not ?v_118)) (?v_166 (not P18)) (?v_198 (not P14)) (?v_208 (not ?v_152)) (?v_197 (not P25)) (?v_174 (not ?v_153)) (?v_204 (not ?v_109)) (?v_185 (not P26)) (?v_193 (not ?v_155))) (let ((?v_207 (or ?v_157 P21)) (?v_172 (not ?v_79)) (?v_186 (not ?v_169)) (?v_180 (not P21)) (?v_202 (or ?v_83 ?v_67)) (?v_188 (not P11)) (?v_205 (or ?v_22 ?v_165)) (?v_194 (not P30)) (?v_200 (not P4)) (?v_203 (or P9 ?v_183)) (?v_1 (<= (+ (* 41 x9) (* 50 x26) (* 12 x37)) 3))) (let ((?v_190 (not ?v_1)) (?v_120 (<= (+ (* 19 x4) (* 26 x27)) 45)) (?v_10 (< (+ (- (* 55 x30) x19) (* 31 x31)) 38))) (let ((?v_130 (not ?v_10)) (?v_111 (< (+ (* 49 x34) (* 53 x32) (* 26 x10)) 12)) (?v_145 (not ?v_120))) (let ((?v_173 (not ?v_111)) (?v_3 (<= (+ (- (* (- 29) x31) (* 30 x11)) (* 12 x3)) (- 5))) (?v_106 (< (- (- (* (- 17) x24) (* 36 x36)) (* 48 x35)) (- 56)))) (let ((?v_65 (not ?v_106)) (?v_128 (= (- (+ (* (- 40) x19) (* 32 x10)) (* 9 x21)) 14))) (let ((?v_21 (not ?v_128)) (?v_133 (<= (+ (- (* (- 10) x33) (* 37 x20)) (* 56 x6)) (- 26))) (?v_18 (distinct (- (+ (* 16 x29) (* 13 x21)) (* 37 x25)) (- 9))) (?v_86 (<= (+ (* 4 x1) (* 5 x39) (* 29 x15)) (- 28))) (?v_162 (= (+ (- (* 6 x37) (* 28 x2)) (* 57 x10)) (- 46)))) (let ((?v_61 (not ?v_162)) (?v_24 (<= (- (+ (* (- 44) x5) (* 44 x24)) (* 33 x29)) 2)) (?v_35 (not ?v_3)) (?v_6 (<= (+ (* 11 x37) (* 34 x5)) (- 8))) (?v_84 (<= (- (- (* (- 9) x0) (* 39 x2)) (* 55 x20)) 47))) (let ((?v_171 (not ?v_84)) (?v_49 (<= (- (+ (* (- 45) x30) (* 16 x13)) (* 5 x16)) 25)) (?v_47 (distinct (- (- (* (- 50) x18) (* 4 x32)) (* 52 x17)) (- 42))) (?v_33 (<= (+ (- (* (- 35) x10) 0) (* 56 x12)) 6)) (?v_23 (distinct (- (+ (* (- 10) x17) (* 53 x33)) (* 19 x15)) (- 26))) (?v_34 (distinct (+ (* 51 x39) (* 2 x28) (* 23 x24)) (- 18))) (?v_29 (<= (- (+ (* (- 25) x27) (* 48 x1)) (* 19 x1)) 4))) (let ((?v_66 (not ?v_29)) (?v_77 (not ?v_18)) (?v_138 (<= (+ (* (- 45) x35) (* 26 x21) (* 33 x25)) 29)) (?v_104 (<= (+ (* (- 57) x30) (* 49 x8) (* 48 x16)) (- 26)))) (let ((?v_31 (not ?v_104)) (?v_101 (not ?v_23)) (?v_140 (not ?v_24)) (?v_81 (< (- (- (* (- 40) x4) (* 55 x33)) (* 3 x8)) (- 22))) (?v_51 (<= (- (+ (* (- 57) x7) (* 26 x16)) x17) (- 59))) (?v_38 (<= (+ (* (- 44) x8) (* 25 x18) (* 20 x25)) (- 22))) (?v_189 (not ?v_34)) (?v_80 (< (+ (- (* (- 39) x28) (* 24 x21)) (* 35 x18)) 47))) (let ((?v_73 (not ?v_80)) (?v_99 (not ?v_38)) (?v_142 (< (- (+ (* (- 27) x31) (* 33 x9)) (* 55 x14)) (- 51)))) (let ((?v_181 (not ?v_142)) (?v_52 (not ?v_51)) (?v_134 (not ?v_47)) (?v_69 (distinct (- (- (* 38 x12) (* 37 x16)) (* 39 x12)) (- 4))) (?v_123 (<= (+ (* (- 6) x7) (* 57 x18) (* 42 x21)) 46)) (?v_116 (distinct (- (+ (* (- 45) x9) (* 42 x17)) (* 26 x35)) (- 9))) (?v_95 (not ?v_33)) (?v_110 (not ?v_86)) (?v_114 (not ?v_49)) (?v_167 (not ?v_6))) (let ((?v_127 (not ?v_116)) (?v_161 (not ?v_123)) (?v_191 (<= (- (+ (* 44 x22) (* 4 x3)) (* 25 x7)) (- 41)))) (let ((?v_139 (not ?v_191)) (?v_178 (not ?v_133)) (?v_177 (not ?v_69)) (?v_195 (not ?v_81)) (?v_199 (not ?v_138))) (and (and (and (and (and (and (and (and (and (and (and (and (and (and (and (and (and (and (and (and (and (and (and (and (and (and (and (and (and (and (and (and (and (and (and (and (and (and (and (and (and (and (and (and (and (and (and (and (and (and (and (and (and (and (and (and (and (and (and (and (and (and (and (and (and (and (and (and (and (and (and (and (and (and (and (and (and (and (and (and (and (and (and (and (and (and (and (and (and (and (and (and (and (and (and (and (and (and (and (and (and (and (and (and (and (and (and (and (and (and (and (and (and (and (and (and (and (and (and (and (and (and (and (and (and (and (and (and (and (and (and (and (and (and (and (and (and (and (and (and (and (and (and (and (and (and (and (and (and (and (and (and (and (and (and (and (and (and (and (and (and (and (and (and (and (and (and (and (and (and (and (and (and (and (and (and (and (and (and (and (and (and (and (and (and (and (and (and (and (and (and (and (and (and (and (and (and (and (and (and (and (and (and (and (and (and (and (and (and (and (and (and (and (and (and (and (and (and (and (and (and (and (and (and (and (and (and (and (and (and (and (and (and (and (and (and (and (and (and (and (and (and (and (and (and (and (and (and (and (and (and (and (and (and (and (and (and (and (and (and (and (and (and (and (and (and (and (and (and (and (and (and (and (and (and (and (and (and (and (and (and (and (and (and (and (and (and (and (and (and (and (and (and (and (and (and (and (and (and (and (and (and (and (and (and (and (and (and (and (and (and (and (and (and (and (and (and (and (and (and (and (and (and (and (and (and (and (and (and (and (and (and (and (and (and (and (and (and (and (and (and (and (and (and (and (and (and (and (and (and (and (and (and (and (and (and (and (and (and (and (and (and (and (and (and (and (and (and (and (and (and (and (and (and (and (and (and (and (and (and (and (and (and (and (and (and (and (and (and (and (and (and (and (and (and (and (and (and (and (and (and (and (and (and (and (and (and (and (and (and (and (and (and (and (and (and (and (and (and (and (and (and (and (and (and (and (and (and (and (and (and (and (and (and (and (and (and (and (and (and (and (and (and (and (and (and (and (and (and (and (and (and (and (and (and (and (and (and (and (and (and (and (and (and (and (and (and (and (and (and (and (and (and (and (and (and (and (and (and (or (or ?v_3 ?v_144) P25) (or (or ?v_65 ?v_15) ?v_27)) (or (or ?v_1 ?v_40) P6)) (or (or ?v_21 ?v_36) ?v_149)) (or (or ?v_17 ?v_5) ?v_26)) (or (or ?v_133 ?v_18) ?v_4)) (or (or P8 ?v_86) ?v_83)) (or (or ?v_61 ?v_113) P23)) (or (or ?v_19 ?v_24) P32)) (or (or ?v_78 ?v_44) ?v_43)) (or (or ?v_2 P27) ?v_71)) (or (or ?v_190 ?v_72) ?v_12)) (or (or ?v_2 ?v_35) P26)) (or (or ?v_25 ?v_6) ?v_79)) (or (or ?v_4 ?v_109) ?v_156)) (or (or ?v_171 P1) ?v_60)) (or (or ?v_49 ?v_5) P35)) (or (or ?v_47 ?v_6) ?v_76)) (or (or ?v_120 ?v_141) ?v_1)) (or (or ?v_33 ?v_23) ?v_7)) (or (or ?v_54 ?v_10) ?v_34)) (or (or P19 ?v_7) P37)) (or (or P25 ?v_9) ?v_89)) (or (or ?v_8 ?v_46) P14)) (or (or ?v_9 ?v_10) ?v_158)) (or (or ?v_11 ?v_12) ?v_66)) (or (or ?v_42 ?v_56) ?v_14)) (or (or ?v_15 ?v_16) ?v_17)) (or (or P9 P2) ?v_70)) (or (or ?v_77 ?v_85) P29)) (or ?v_32 ?v_21)) (or (or ?v_138 ?v_31) ?v_22)) (or (or ?v_30 ?v_101) ?v_140)) (or (or ?v_25 ?v_53) ?v_26)) (or (or ?v_19 ?v_17) ?v_55)) (or (or P5 ?v_41) ?v_27)) (or (or ?v_118 ?v_93) ?v_81)) (or (or ?v_5 ?v_29) ?v_30)) (or (or P30 ?v_51) ?v_45)) (or (or ?v_82 ?v_206) ?v_31)) (or ?v_32 ?v_38)) (or (or ?v_33 ?v_189) ?v_58)) (or (or ?v_35 ?v_73) P24)) (or (or P0 ?v_184) ?v_36)) (or (or ?v_50 ?v_34) P9)) (or (or P11 ?v_125) ?v_37)) (or (or ?v_99 P30) ?v_68)) (or (or ?v_155 ?v_40) ?v_91)) (or (or ?v_42 ?v_43) P36)) (or (or ?v_44 ?v_2) ?v_181)) (or (or ?v_112 ?v_3) ?v_45)) (or (or P27 ?v_24) ?v_108)) (or (or ?v_46 ?v_47) ?v_48)) (or (or ?v_21 ?v_43) ?v_49)) (or (or ?v_50 ?v_19) ?v_52)) (or (or ?v_14 ?v_52) ?v_64)) (or (or ?v_105 ?v_54) ?v_55)) (or (or ?v_63 ?v_26) ?v_56)) (or (or ?v_57 P2) P29)) (or (or ?v_58 ?v_59) ?v_98)) (or (or ?v_102 ?v_60) ?v_170)) (or (or ?v_61 ?v_8) ?v_56)) (or (or ?v_11 P7) ?v_62)) (or (or ?v_134 ?v_63) ?v_64)) (or (or ?v_69 ?v_135) ?v_65)) (or (or P28 ?v_123) P32)) (or (or ?v_66 ?v_7) ?v_67)) (or (or ?v_68 ?v_35) ?v_69)) (or (or ?v_70 ?v_37) ?v_119)) (or (or ?v_71 ?v_116) ?v_41)) (or (or ?v_62 ?v_44) ?v_72)) (or (or P37 ?v_165) ?v_73)) (or (or ?v_95 ?v_74) ?v_47)) (or (or ?v_90 ?v_5) ?v_75)) (or (or ?v_69 ?v_100) ?v_175)) (or (or ?v_76 ?v_77) ?v_201)) (or (or ?v_78 ?v_5) ?v_16)) (or (or ?v_79 ?v_130) ?v_49)) (or (or P13 P7) ?v_80)) (or (or ?v_41 ?v_81) ?v_27)) (or (or ?v_15 P26) ?v_88)) (or (or ?v_2 ?v_96) ?v_45)) (or (or ?v_129 ?v_83) ?v_84)) (or (or ?v_72 ?v_85) P26)) (or (or ?v_43 ?v_110) ?v_179)) (or (or ?v_64 ?v_87) ?v_88)) (or (or ?v_79 ?v_89) ?v_192)) (or (or ?v_7 ?v_169) ?v_64)) (or (or ?v_89 ?v_97) ?v_91)) (or (or ?v_15 P21) ?v_11)) (or (or ?v_92 ?v_187) ?v_94)) (or (or ?v_45 ?v_95) ?v_27)) (or (or ?v_111 ?v_47) P1)) (or (or P19 ?v_88) ?v_96)) (or (or ?v_196 ?v_98) ?v_42)) (or (or ?v_77 ?v_60) ?v_99)) (or (or ?v_100 ?v_101) ?v_117)) (or (or ?v_16 ?v_30) ?v_29)) (or (or ?v_102 ?v_131) ?v_44)) (or (or ?v_103 ?v_115) ?v_51)) (or (or ?v_104 P11) ?v_61)) (or (or ?v_105 ?v_81) ?v_61)) (or (or ?v_103 ?v_160) P20)) (or (or P14 ?v_98) ?v_97)) (or (or ?v_106 ?v_107) ?v_108)) (or (or ?v_88 ?v_11) ?v_126)) (or (or ?v_14 ?v_109) ?v_94)) (or (or P3 ?v_58) ?v_89)) (or (or ?v_110 ?v_111) ?v_143)) (or (or ?v_114 ?v_41) ?v_112)) (or (or ?v_100 ?v_113) ?v_91)) (or (or ?v_10 P27) ?v_167)) (or (or ?v_17 ?v_99) ?v_114)) (or (or P5 ?v_115) P16)) (or (or ?v_55 P17) ?v_127)) (or (or ?v_86 ?v_38) ?v_124)) (or (or ?v_117 ?v_83) ?v_108)) (or (or ?v_118 ?v_136) ?v_119)) (or (or ?v_12 ?v_122) ?v_153)) (or (or ?v_48 ?v_76) ?v_112)) (or (or ?v_145 ?v_21) P17)) (or (or ?v_53 ?v_41) P16)) (or (or P4 ?v_109) ?v_9)) (or (or ?v_121 ?v_122) ?v_18)) (or (or ?v_120 ?v_96) ?v_54)) (or (or ?v_161 ?v_113) ?v_124)) (or (or P35 ?v_25) ?v_14)) (or (or ?v_121 ?v_157) ?v_126)) (or (or ?v_127 ?v_128) ?v_35)) (or (or ?v_72 ?v_182) ?v_129)) (or (or ?v_72 ?v_53) ?v_139)) (or (or ?v_125 P12) ?v_130)) (or (or ?v_18 ?v_67) ?v_131)) (or (or ?v_127 ?v_152) P21)) (or (or ?v_115 ?v_132) P12)) (or (or ?v_178 ?v_19) P15)) (or (or ?v_134 ?v_135) P24)) (or (or ?v_136 ?v_137) ?v_138)) (or (or ?v_85 ?v_137) P11)) (or (or ?v_139 ?v_5) ?v_73)) (or (or ?v_62 ?v_150) ?v_14)) (or (or ?v_8 ?v_75) ?v_67)) (or (or ?v_24 ?v_164) ?v_56)) (or (or ?v_108 ?v_135) ?v_51)) (or (or ?v_83 ?v_73) ?v_92)) (or (or ?v_3 ?v_105) ?v_140)) (or (or ?v_24 ?v_141) ?v_58)) (or (or P4 P11) ?v_69)) (or (or ?v_76 ?v_36) ?v_147)) (or (or P29 ?v_142) ?v_143)) (or (or ?v_119 ?v_120) ?v_144)) (or (or ?v_90 ?v_95) ?v_67)) (or (or ?v_115 ?v_56) ?v_145)) (or (or ?v_117 ?v_2) ?v_138)) (or (or P13 ?v_144) ?v_139)) (or (or ?v_146 ?v_40) ?v_154)) (or (or ?v_166 ?v_145) ?v_123)) (or (or ?v_147 ?v_104) ?v_47)) (or (or ?v_49 ?v_52) ?v_56)) (or (or P30 ?v_122) ?v_1)) (or (or ?v_148 P31) ?v_120)) (or (or ?v_30 ?v_102) P12)) (or (or ?v_11 ?v_149) ?v_66)) (or (or ?v_125 ?v_94) ?v_150)) (or (or ?v_18 ?v_109) ?v_25)) (or (or P16 ?v_198) P21)) (or (or ?v_4 ?v_11) P33)) (or (or ?v_151 ?v_151) ?v_4)) (or (or ?v_208 ?v_197) ?v_174)) (or (or P37 ?v_3) ?v_86)) (or (or ?v_62 ?v_122) ?v_76)) (or (or ?v_136 ?v_204) P2)) (or (or ?v_185 P38) ?v_154)) (or (or ?v_41 ?v_193) P20)) (or (or ?v_51 P1) ?v_38)) (or (or ?v_4 ?v_42) ?v_96)) (or (or ?v_41 ?v_4) P6)) (or (or ?v_156 ?v_108) P10)) (or (or ?v_29 ?v_157) ?v_133)) (or (or ?v_19 ?v_67) ?v_80)) (or (or ?v_158 ?v_119) ?v_159)) (or (or P27 P2) P17)) (or ?v_207 ?v_160)) (or (or ?v_64 ?v_36) ?v_161)) (or (or ?v_111 P21) ?v_149)) (or (or ?v_138 ?v_123) P0)) (or (or P20 ?v_162) ?v_145)) (or (or ?v_163 ?v_30) P2)) (or (or ?v_164 ?v_152) ?v_41)) (or (or ?v_147 ?v_157) ?v_172)) (or (or ?v_162 P1) ?v_2)) (or (or ?v_157 ?v_87) ?v_120)) (or (or ?v_57 ?v_86) ?v_165)) (or (or ?v_166 ?v_109) ?v_111)) (or (or ?v_78 ?v_3) ?v_167)) (or (or ?v_177 ?v_26) ?v_121)) (or (or P12 ?v_56) P15)) (or (or ?v_71 ?v_117) ?v_168)) (or (or ?v_186 ?v_173) P28)) (or (or P35 ?v_170) ?v_171)) (or (or ?v_172 ?v_31) ?v_4)) (or (or ?v_155 P24) ?v_84)) (or (or ?v_127 ?v_40) ?v_170)) (or (or ?v_156 ?v_133) ?v_2)) (or (or P0 ?v_108) P23)) (or (or P34 P30) ?v_15)) (or (or ?v_29 ?v_171) ?v_173)) (or (or ?v_156 ?v_174) ?v_157)) (or (or ?v_30 ?v_66) ?v_50)) (or (or ?v_61 ?v_154) ?v_157)) (or (or ?v_37 ?v_151) P15)) (or (or ?v_107 ?v_119) ?v_96)) (or (or P4 ?v_66) ?v_60)) (or (or ?v_175 ?v_18) P36)) (or (or P38 ?v_115) P9)) (or (or ?v_148 ?v_159) ?v_101)) (or (or ?v_19 ?v_156) ?v_107)) (or (or ?v_119 ?v_169) ?v_130)) (or (or ?v_125 ?v_104) ?v_180)) (or (or ?v_176 ?v_139) ?v_177)) (or (or ?v_178 ?v_68) ?v_14)) (or (or ?v_8 ?v_50) ?v_106)) (or (or P17 P31) ?v_107)) (or (or ?v_23 ?v_147) ?v_160)) (or (or ?v_179 ?v_152) ?v_134)) (or (or ?v_180 ?v_179) ?v_96)) (or (or ?v_79 ?v_181) ?v_131)) (or (or ?v_143 ?v_182) ?v_178)) (or (or ?v_86 ?v_99) P28)) (or ?v_202 ?v_183)) (or (or ?v_137 ?v_45) ?v_7)) (or (or ?v_106 ?v_111) ?v_148)) (or (or ?v_180 ?v_115) P3)) (or (or ?v_119 ?v_184) ?v_135)) (or (or ?v_172 ?v_195) P6)) (or (or P19 ?v_84) ?v_120)) (or (or ?v_101 ?v_105) ?v_54)) (or (or ?v_45 P3) ?v_55)) (or (or ?v_3 P11) ?v_26)) (or (or P11 ?v_58) ?v_59)) (or (or ?v_80 ?v_185) ?v_186)) (or (or ?v_129 ?v_3) ?v_36)) (or (or P22 P39) ?v_146)) (or (or ?v_121 ?v_114) ?v_93)) (or (or ?v_50 ?v_177) ?v_36)) (or (or ?v_154 ?v_47) ?v_12)) (or (or ?v_36 P19) ?v_78)) (or (or ?v_25 ?v_75) P9)) (or (or P14 P17) ?v_11)) (or (or ?v_47 P33) P2)) (or (or ?v_141 ?v_173) ?v_102)) (or (or ?v_75 ?v_145) ?v_199)) (or (or ?v_188 ?v_66) ?v_112)) (or (or ?v_54 ?v_168) P26)) (or (or ?v_149 ?v_44) ?v_51)) (or (or P7 ?v_11) ?v_112)) (or (or ?v_148 P1) ?v_143)) (or (or ?v_107 P3) ?v_86)) (or (or ?v_127 P20) ?v_62)) (or (or ?v_98 ?v_108) ?v_135)) (or (or ?v_48 P19) ?v_171)) (or (or ?v_80 ?v_101) ?v_157)) (or (or ?v_165 ?v_94) ?v_185)) (or (or ?v_18 ?v_187) ?v_125)) (or (or ?v_106 ?v_25) ?v_82)) (or (or ?v_188 P20) ?v_27)) (or (or ?v_118 ?v_189) ?v_190)) (or (or ?v_42 ?v_153) ?v_49)) (or (or ?v_191 ?v_154) ?v_73)) (or (or P14 P23) (not P0))) (or (or ?v_179 P5) ?v_168)) (or (or P3 ?v_100) ?v_1)) (or (or ?v_100 ?v_181) P12)) (or (or ?v_31 ?v_41) ?v_127)) (or (or ?v_19 ?v_84) P21)) (or (or P14 P38) ?v_150)) (or (or P12 ?v_5) ?v_67)) (or (or ?v_151 ?v_148) ?v_124)) (or (or P27 ?v_172) P7)) (or ?v_205 ?v_150)) (or (or ?v_101 ?v_179) ?v_48)) (or (or P30 ?v_40) ?v_77)) (or (or ?v_194 ?v_51) ?v_98)) (or (or ?v_129 ?v_173) ?v_192)) (or (or P10 ?v_79) ?v_157)) (or (or ?v_193 ?v_53) ?v_134)) (or (or ?v_76 P4) ?v_128)) (or (or P33 ?v_153) ?v_70)) (or (or P1 P20) ?v_189)) (or (or ?v_127 ?v_146) ?v_62)) (or (or ?v_26 ?v_49) ?v_120)) (or (or ?v_88 ?v_58) ?v_194)) (or (or ?v_120 ?v_88) ?v_118)) (or (or ?v_152 ?v_89) ?v_186)) (or (or P35 ?v_123) ?v_155)) (or (or ?v_46 ?v_42) ?v_99)) (or (or ?v_165 ?v_115) P20)) (or (or ?v_100 P35) ?v_33)) (or (or ?v_182 ?v_173) P11)) (or (or ?v_159 ?v_151) P28)) (or (or ?v_178 ?v_135) ?v_10)) (or (or ?v_138 ?v_159) ?v_179)) (or (or ?v_190 ?v_103) ?v_55)) (or (or ?v_195 ?v_30) ?v_200)) (or (or ?v_55 ?v_108) ?v_95)) (or (or ?v_191 ?v_107) ?v_94)) (or (or ?v_84 P38) P10)) (or (or ?v_21 ?v_165) ?v_93)) (or (or ?v_48 P37) ?v_77)) (or (or ?v_185 ?v_29) ?v_177)) (or (or ?v_47 ?v_30) ?v_175)) (or (or ?v_21 ?v_174) ?v_134)) (or (or ?v_168 ?v_156) ?v_88)) (or (or P15 P18) P28)) (or (or P24 ?v_43) ?v_159)) (or (or P22 ?v_162) ?v_151)) (or (or ?v_9 ?v_5) ?v_100)) (or (or ?v_142 ?v_38) ?v_17)) (or (or ?v_65 P13) ?v_180)) (or (or ?v_9 ?v_71) ?v_7)) (or (or P31 ?v_18) ?v_41)) (or (or P24 ?v_129) ?v_177)) (or (or P10 ?v_21) ?v_115)) (or (or ?v_2 ?v_159) ?v_31)) (or (or P23 ?v_153) ?v_99)) (or (or ?v_137 P35) ?v_178)) (or (or ?v_181 ?v_33) ?v_145)) (or (or ?v_82 ?v_41) ?v_51)) (or (or ?v_1 ?v_196) ?v_22)) (or (or P12 ?v_192) ?v_178)) (or (or ?v_83 ?v_144) ?v_135)) (or (or ?v_43 ?v_16) ?v_105)) (or (or ?v_197 ?v_159) ?v_66)) (or (or ?v_47 ?v_95) P20)) (or (or ?v_4 ?v_133) ?v_167)) (or (or ?v_5 ?v_113) ?v_27)) (or (or P10 ?v_77) P12)) (or (or P16 ?v_144) ?v_183)) (or (or ?v_178 ?v_40) ?v_159)) (or (or ?v_159 ?v_29) ?v_61)) (or (or ?v_88 ?v_73) ?v_111)) (or (or P17 ?v_12) P14)) (or (or ?v_40 ?v_147) ?v_109)) (or (or P35 ?v_1) ?v_140)) (or (or ?v_157 ?v_123) ?v_44)) (or (or ?v_34 P2) ?v_127)) (or (or ?v_93 ?v_47) ?v_15)) (or (or ?v_152 ?v_5) ?v_78)) (or (or P3 P17) ?v_189)) (or (or ?v_138 ?v_115) ?v_180)) (or (or P21 ?v_194) ?v_12)) (or (or ?v_198 P16) ?v_94)) (or (or P13 ?v_197) ?v_178)) (or (or ?v_46 ?v_146) ?v_136)) (or (or ?v_70 ?v_161) P11)) (or (or ?v_58 ?v_22) ?v_38)) (or (or ?v_166 ?v_199) ?v_70)) (or (or ?v_25 P1) ?v_68)) (or (or ?v_132 ?v_85) P30)) (or (or ?v_81 ?v_179) ?v_97)) (or (or P3 ?v_82) ?v_138)) (or (or ?v_190 ?v_123) P35)) (or (or P36 P4) P1)) (or (or ?v_63 ?v_146) ?v_21)) (or (or ?v_168 ?v_198) ?v_120)) (or (or P31 ?v_36) P34)) (or (or ?v_126 P24) P29)) (or (or P11 ?v_196) ?v_102)) (or (or ?v_77 ?v_61) ?v_55)) (or (or ?v_68 ?v_157) ?v_165)) (or (or P2 ?v_188) ?v_196)) (or (or ?v_166 ?v_136) ?v_63)) (or (or ?v_18 ?v_103) ?v_124)) (or (or P21 ?v_22) P8)) (or (or ?v_65 ?v_107) ?v_19)) (or ?v_203 ?v_156)) (or (or ?v_105 ?v_164) ?v_113)) (or (or ?v_59 ?v_22) ?v_155)) (or (or ?v_67 P11) ?v_155)) (or (or P6 ?v_131) ?v_116)) (or (or ?v_147 ?v_175) ?v_74)) (or (or ?v_27 ?v_69) P38)) (or (or ?v_1 ?v_183) ?v_146)) (or (or ?v_105 P5) ?v_144)) (or (or ?v_40 ?v_191) ?v_200)) (or (or ?v_23 ?v_106) ?v_95)) (or (or ?v_180 ?v_103) ?v_114)) (or (or ?v_2 P34) ?v_87)) (or (or P18 ?v_195) ?v_16)) (or (or ?v_127 ?v_60) ?v_177)) (or (or ?v_102 P6) ?v_24)) (or (or ?v_126 ?v_136) ?v_72)) (or (or ?v_97 ?v_160) ?v_113)) (or (or ?v_2 ?v_199) ?v_201)) (or (or ?v_9 ?v_23) P8)) (or (or P32 ?v_129) ?v_131)) (or (or P36 ?v_120) ?v_185)) (or (or ?v_5 ?v_150) ?v_192)) (or (or ?v_11 ?v_6) ?v_40)) (or (or ?v_148 ?v_109) P36)) (or (or ?v_85 ?v_86) ?v_7)) (or (or ?v_90 ?v_197) ?v_164)) (or (or P10 ?v_5) ?v_145)) (or (or ?v_61 ?v_102) ?v_47)) (or (or ?v_195 P17) ?v_104)) (or (or ?v_61 ?v_107) ?v_37)) (or (or ?v_74 ?v_163) ?v_140)) (or (or ?v_42 P18) ?v_80)) (or (or ?v_142 ?v_167) ?v_72)) (or (or ?v_109 ?v_150) ?v_110)) (or (or P26 ?v_138) ?v_30)) (or (or P14 P31) ?v_190)) (or (or ?v_123 ?v_138) ?v_127)) (or ?v_202 ?v_107)) (or (or ?v_18 ?v_140) ?v_115)) (or ?v_203 ?v_59)) (or (or ?v_96 ?v_49) ?v_174)) (or (or ?v_182 ?v_51) ?v_158)) (or (or ?v_204 ?v_40) ?v_29)) (or (or ?v_17 ?v_42) ?v_185)) (or (or ?v_61 ?v_135) ?v_97)) (or (or ?v_163 ?v_97) P3)) (or (or ?v_55 ?v_43) ?v_184)) (or ?v_205 ?v_10)) (or (or ?v_89 ?v_169) ?v_146)) (or (or ?v_1 P16) ?v_151)) (or (or P33 ?v_47) ?v_88)) (or (or ?v_95 P37) ?v_157)) (or (or P17 ?v_106) P1)) (or (or ?v_35 ?v_174) ?v_12)) (or (or ?v_26 ?v_161) ?v_81)) (or (or ?v_3 ?v_165) ?v_94)) (or (or ?v_103 ?v_158) ?v_87)) (or (or P8 ?v_60) ?v_163)) (or (or P2 ?v_5) ?v_6)) (or (or ?v_45 ?v_177) P36)) (or (or ?v_173 ?v_83) ?v_26)) (or (or ?v_176 ?v_68) P3)) (or (or ?v_194 ?v_181) P24)) (or (or P16 ?v_83) P9)) (or (or ?v_38 ?v_3) ?v_176)) (or (or ?v_4 ?v_119) ?v_174)) (or (or ?v_134 ?v_76) P30)) (or (or ?v_146 ?v_125) ?v_89)) (or (or ?v_196 ?v_89) ?v_30)) (or (or ?v_185 ?v_68) ?v_22)) (or (or ?v_36 ?v_181) ?v_86)) (or (or ?v_64 ?v_73) P16)) (or (or ?v_97 ?v_142) ?v_84)) (or (or ?v_91 ?v_57) ?v_73)) (or (or ?v_157 P5) ?v_57)) (or (or ?v_170 ?v_85) P16)) (or (or ?v_95 ?v_10) P29)) (or (or ?v_61 ?v_35) ?v_4)) (or (or ?v_147 ?v_72) ?v_3)) (or (or P36 ?v_37) ?v_77)) (or (or ?v_2 ?v_95) ?v_86)) (or (or ?v_190 ?v_169) ?v_119)) (or (or P23 ?v_194) ?v_69)) (or (or P13 ?v_89) ?v_64)) (or (or ?v_21 P28) P31)) (or (or P24 ?v_137) ?v_7)) (or (or P21 ?v_116) ?v_107)) (or (or P11 ?v_7) P16)) (or (or ?v_79 ?v_108) ?v_11)) (or (or ?v_95 ?v_98) ?v_131)) (or (or ?v_206 P5) ?v_199)) (or (or ?v_29 ?v_133) ?v_106)) (or (or ?v_164 ?v_86) ?v_161)) (or (or P9 ?v_12) ?v_108)) (or ?v_207 P33)) (or (or P26 P38) ?v_186)) (or (or P33 P13) ?v_141)) (or (or P4 ?v_175) ?v_176)) (or (or ?v_189 ?v_10) P30)) (or (or ?v_185 P13) ?v_201)) (or (or ?v_172 P38) ?v_109)) (or (or ?v_146 ?v_89) ?v_106)) (or (or ?v_188 ?v_208) ?v_122)) (or (or P28 ?v_117) P6)))))))))))))))))))))))))
(check-sat)
(exit)
